2 20
212 158 
0 53 35 30 53 33 45 1
1 62 99 70 34 37 64 2
2 71 61 72 40 59 71 1
3 79 90 56 45 36 26 2
4 29 43 97 86 57 12 1
5 68 97 69 51 58 77 1
6 9 96 57 23 95 67 2
7 35 67 67 5 71 73 2
8 66 4 18 71 28 36 1
9 62 57 22 12 90 35 2
10 30 83 23 21 11 46 2
11 14 2 87 13 3 20 2
12 14 67 75 18 28 71 1
13 45 27 86 66 19 4 2
14 86 12 59 46 69 7 1
15 11 84 64 6 92 27 1
16 73 20 26 99 96 13 1
17 81 31 18 26 45 2 1
18 30 48 66 71 43 50 1
19 33 41 29 8 41 92 2
